15 71 11 30 12 42 64 2 19 20 66 84 32 5 92 74 96 9 73 35 44 54 37 39 3 63 52 51 23 46 49 45 90 22 80 62 43 77 99 47 4 17 70 8 53 13 89 86 10 0 93 57 83 79 69 38 34 58 1 97 33 68 31 27 65 48 98 75 56 91 40 72 7 55 24 88 87 85 81 67 78 59 25 26 16 95 36 18 29 21 14 61 82 6 60 50 94 28 41 76